NAME : TW_40_seed_None_id_3
TYPE : CVRPTW
DIMENSION : 11
EDGE_WEIGHT_TYPE : EUC_2D
CAPACITY : 25
SERVICE_TIME : 100
LATE_COEFF : 0
NODE_COORD_SECTION
1	855	407
2	112	560
3	812	909
4	596	788
5	243	762
6	931	159
7	573	814
8	322	742
9	102	441
10	741	496
11	502	139
DEMAND_SECTION
1	0
2	1
3	4
4	1
5	7
6	10
7	10
8	9
9	6
10	5
11	10
TIME_WINDOW_SECTION
1	0	10000
2	8504	10000
3	5404	7352
4	3515	5429
5	4954	6976
6	5861	7825
7	2546	4471
8	0	1910
9	4455	6463
10	1969	3897
11	3398	5427
DEPOT_SECTION
1
-1
EOF
